# Solution for model GasLib-40
# Objective value = 5.2953562835185807e+01
loadshed[innode_1] 0
loadshed[innode_2] 0
loadshed[innode_3] 0
loadshed[innode_4] 0
loadshed[innode_5] 0
loadshed[innode_6] 0
loadshed[innode_7] 0
loadshed[innode_8] 0
loadshed[source_1] -9.3302806812800121e-02
loadshed[source_2] 6.6059360598783479e-02
loadshed[source_3] 3.6220119048222810e-01
loadshed[sink_1] 3.5212532465911717e-01
loadshed[sink_2] 0
loadshed[sink_3] 0
loadshed[sink_4] 0
loadshed[sink_5] 0
loadshed[sink_6] 0
loadshed[sink_7] 0
loadshed[sink_8] 0
loadshed[sink_9] 0
loadshed[sink_10] 0
loadshed[sink_11] 0
loadshed[sink_12] 1
loadshed[sink_13] 0
loadshed[sink_14] 0
loadshed[sink_15] 0
loadshed[sink_16] 0
loadshed[sink_17] 0
loadshed[sink_18] 0
loadshed[sink_19] 0
loadshed[sink_20] 0
loadshed[sink_21] 1
loadshed[sink_22] 0
loadshed[sink_23] 0
loadshed[sink_24] 8.8579953660065180e-01
loadshed[sink_25] 0
loadshed[sink_26] 0
loadshed[sink_27] 0
loadshed[sink_28] 0
loadshed[sink_29] 0
flow[source_1,sink_3] 1.7284054442425969e+02
flow[innode_1,sink_16] 1.6354166666666970e+01
flow[innode_6,sink_13] 1.3649375703666777e+01
flow[sink_13,sink_14] -2.7047909629998905e+00
flow[sink_14,sink_10] -1.9058957629666338e+01
flow[sink_25,sink_26] 4.9062500000001251e+01
flow[sink_26,sink_9] 3.2708333333334551e+01
flow[sink_9,sink_18] 1.6354166666667879e+01
flow[sink_26,sink_4] 0
flow[sink_4,sink_20] -6.2300807541206652e+01
flow[sink_18,sink_6] 0
flow[sink_25,innode_8] -1.4013221109092331e+02
flow[sink_6,sink_7] -4.3303783752970688e+01
flow[sink_6,sink_22] 2.6949617086304023e+01
flow[sink_7,sink_24] 1.8676534118435058e+00
flow[sink_22,sink_1] 1.0595450419637356e+01
flow[sink_24,sink_21] 0
flow[sink_21,sink_12] 0
flow[sink_7,sink_5] -6.1525603831480858e+01
flow[sink_5,sink_17] -7.7879770498147522e+01
flow[sink_17,sink_4] -4.5946640874539980e+01
flow[sink_17,sink_8] -4.8287296290274213e+01
flow[sink_3,sink_23] 16.3541666666697
flow[sink_8,sink_20] -6.4641462956940885e+01
flow[sink_25,sink_20] 1.4329643716481425e+02
flow[sink_25,sink_15] -8.2230268444225814e+01
flow[sink_15,sink_29] -55.8511712096609
flow[sink_29,sink_28] 1.6354166666667879e+01
flow[sink_29,sink_2] 5.9087430567898252e+01
flow[sink_2,sink_15] 4.2733263901231588e+01
flow[sink_29,innode_7] -1.4764693511089371e+02
flow[innode_4,sink_19] 3.8323533187098114e+01
flow[sink_19,innode_3] 0
flow[innode_4,innode_5] 6.2506257775902412e+01
flow[sink_27,innode_5] -6.2506257775902412e+01
flow[sink_27,sink_19] 4.6152091109235748e+01
flow[sink_10,sink_11] 3.2708333333333641e+01
flow[sink_10,innode_2] -6.8121457629666963e+01
flow[sink_10,innode_3] 0
flow[innode_6,sink_25] -1.3649375703666777e+01
flow[sink_11,innode_1] 1.6354166666666970e+01
flow[sink_19,innode_2] 6.8121457629666963e+01
flow[source_3,innode_4] 1.0082979096300053e+02
flow[source_2,innode_7] 1.4764693511089371e+02
flow[sink_3,innode_8] 1.4013221109092331e+02
pressure[innode_1] 7.5708464327505510e+01
pressure[innode_2] 7.9460666021671543e+01
pressure[innode_3] 7.9460666021671543e+01
pressure[innode_4] 81.01325
pressure[innode_5] 8.0970254899936549e+01
pressure[innode_6] 7.5029109974191130e+01
pressure[innode_7] 81.01325
pressure[innode_8] 80.4355100874709
pressure[source_1] 81.01325
pressure[source_2] 81.01325
pressure[source_3] 81.01325
pressure[sink_1] 1.01325
pressure[sink_2] 7.5567521591492508e+01
pressure[sink_3] 80.4355100874709
pressure[sink_4] 3.6297000578967150e+01
pressure[sink_5] 2.8739591498145110e+01
pressure[sink_6] 2.5571162652344706e+00
pressure[sink_7] 3.1515739955648638e+00
pressure[sink_8] 3.6363076605450324e+01
pressure[sink_9] 6.9615988744114844e+01
pressure[sink_10] 7.5860165635109055e+01
pressure[sink_11] 7.5708464327505510e+01
pressure[sink_12] 1.01325
pressure[sink_13] 74.9538632469594
pressure[sink_14] 7.4958703700784937e+01
pressure[sink_15] 7.5428006903114650e+01
pressure[sink_16] 7.4686814492687830e+01
pressure[sink_17] 3.4541071469107308e+01
pressure[sink_18] 6.9024246250315144e+01
pressure[sink_19] 7.9460666021671543e+01
pressure[sink_20] 4.0867677503135006e+01
pressure[sink_21] 1.01325
pressure[sink_22] 1.7024390877408888e+00
pressure[sink_23] 8.0270792075811116e+01
pressure[sink_24] 1.01325
pressure[sink_25] 7.5029109974191130e+01
pressure[sink_26] 7.1573666911999453e+01
pressure[sink_27] 80.451568459542
pressure[sink_28] 7.6768990618370182e+01
pressure[sink_29] 7.7064272891987358e+01
interdiction[source_1,sink_3] 0
interdiction[innode_1,sink_16] 0
interdiction[innode_6,sink_13] 0
interdiction[sink_13,sink_14] 0
interdiction[sink_14,sink_10] 0
interdiction[sink_25,sink_26] 0
interdiction[sink_26,sink_9] 0
interdiction[sink_9,sink_18] 0
interdiction[sink_26,sink_4] 1
interdiction[sink_4,sink_20] 0
interdiction[sink_18,sink_6] 1
interdiction[sink_25,innode_8] 0
interdiction[sink_6,sink_7] 0
interdiction[sink_6,sink_22] 0
interdiction[sink_7,sink_24] 0
interdiction[sink_22,sink_1] 0
interdiction[sink_24,sink_21] 0
interdiction[sink_21,sink_12] 0
interdiction[sink_7,sink_5] 0
interdiction[sink_5,sink_17] 0
interdiction[sink_17,sink_4] 0
interdiction[sink_17,sink_8] 0
interdiction[sink_3,sink_23] 0
interdiction[sink_8,sink_20] 0
interdiction[sink_25,sink_20] 0
interdiction[sink_25,sink_15] 0
interdiction[sink_15,sink_29] 0
interdiction[sink_29,sink_28] 0
interdiction[sink_29,sink_2] 0
interdiction[sink_2,sink_15] 0
interdiction[sink_29,innode_7] 0
interdiction[innode_4,sink_19] 0
interdiction[sink_19,innode_3] 0
interdiction[innode_4,innode_5] 0
interdiction[sink_27,innode_5] 0
interdiction[sink_27,sink_19] 0
interdiction[sink_10,sink_11] 0
interdiction[sink_10,innode_2] 0
interdiction[sink_10,innode_3] 1
interdiction[innode_6,sink_25] 0
interdiction[sink_11,innode_1] 0
interdiction[sink_19,innode_2] 0
interdiction[source_3,innode_4] 0
interdiction[source_2,innode_7] 0
interdiction[sink_3,innode_8] 0
WCcheckFlow[source_1,sink_3] 39
WCcheckFlow[innode_1,sink_16] 1
WCcheckFlow[innode_6,sink_13] 13
WCcheckFlow[sink_13,sink_14] 12
WCcheckFlow[sink_14,sink_10] 11
WCcheckFlow[sink_25,sink_26] 3
WCcheckFlow[sink_26,sink_9] 2
WCcheckFlow[sink_9,sink_18] 1
WCcheckFlow[sink_26,sink_4] 0
WCcheckFlow[sink_4,sink_20] -11
WCcheckFlow[sink_18,sink_6] 0
WCcheckFlow[sink_25,innode_8] -36
WCcheckFlow[sink_6,sink_7] -3
WCcheckFlow[sink_6,sink_22] 2
WCcheckFlow[sink_7,sink_24] 3
WCcheckFlow[sink_22,sink_1] 1
WCcheckFlow[sink_24,sink_21] 2
WCcheckFlow[sink_21,sink_12] 1
WCcheckFlow[sink_7,sink_5] -7
WCcheckFlow[sink_5,sink_17] -8
WCcheckFlow[sink_17,sink_4] -10
WCcheckFlow[sink_17,sink_8] 1
WCcheckFlow[sink_3,sink_23] 1
WCcheckFlow[sink_8,sink_20] 0
WCcheckFlow[sink_25,sink_20] 12
WCcheckFlow[sink_25,sink_15] 6
WCcheckFlow[sink_15,sink_29] 5
WCcheckFlow[sink_29,sink_28] 1
WCcheckFlow[sink_29,sink_2] 1
WCcheckFlow[sink_2,sink_15] 0
WCcheckFlow[sink_29,innode_7] 2
WCcheckFlow[innode_4,sink_19] -4
WCcheckFlow[sink_19,innode_3] 1
WCcheckFlow[innode_4,innode_5] 2
WCcheckFlow[sink_27,innode_5] -1
WCcheckFlow[sink_27,sink_19] 0
WCcheckFlow[sink_10,sink_11] 3
WCcheckFlow[sink_10,innode_2] 7
WCcheckFlow[sink_10,innode_3] 0
WCcheckFlow[innode_6,sink_25] -14
WCcheckFlow[sink_11,innode_1] 2
WCcheckFlow[sink_19,innode_2] -6
WCcheckFlow[source_3,innode_4] -1
WCcheckFlow[source_2,innode_7] -1
WCcheckFlow[sink_3,innode_8] 37
